27 3
5 5 6
0 0 0 0 25 2 3 4 5 6 7 8 9 10 11 12 13 14 15 16 17 18 19 20 21 22 23 24 25 26
3 0 0 3 6 27 15 10 14 10 18
2 1 0 3 3 27 22 11
2 0 0 3 4 27 9 24 22
4 2 2 3 5 27 25 8 21 14
5 0 2 1 7 27 23 11 18 13 21 17
5 2 1 3 4 27 14 11 25
5 0 1 1 4 27 13 23 22
5 2 2 3 3 27 12 15
3 1 1 0 3 27 11 19
3 0 0 1 1 27
4 1 0 3 5 27 22 20 18 15
3 2 1 3 2 27 16
5 1 2 3 3 27 19 24
1 0 0 2 3 27 18 21
3 2 0 0 1 27
4 2 1 1 2 27 19
3 1 1 0 3 27 22 21
1 2 0 2 2 27 25
2 0 2 1 3 27 24 24
5 0 2 2 1 27
2 2 2 3 1 27
5 0 2 1 1 27
3 0 0 3 1 27
5 2 1 2 1 27
4 1 0 3 1 27
0 0 0 0 0
